benchmark/results/graph__15-1000-0.10-04_19/graph__15-1000-0.10-04_19_QuintonOs_Benders_primal_sub.lp
\ This file has been generated by DOcplex
\ ENCODING=ISO-8859-1
\Problem name: Quinton Bounded Benders_primal_sub

Maximize
 obj: tau
Subject To
 c1: tau <= 0.002450980392
 c2: y_a0_proc_1 + y_a0_proc_2 + y_a0_proc_3 - tau = 0
 c3: y_a0_proc_1 <= 0
 c4: y_a0_proc_2 <= 1
 c5: y_a0_proc_3 <= 0
 c6: tau <= 0.001358695652
 c7: y_a1_proc_0 + y_a1_proc_1 + y_a1_proc_2 + y_a1_proc_3 - tau = 0
 c8: y_a1_proc_0 <= 0
 c9: y_a1_proc_1 <= 1
 c10: y_a1_proc_2 <= 0
 c11: y_a1_proc_3 <= 0
 c12: tau <= 0.001383125864
 c13: y_a2_proc_0 + y_a2_proc_1 + y_a2_proc_2 + y_a2_proc_3 - tau = 0
 c14: y_a2_proc_0 <= 1
 c15: y_a2_proc_1 <= 0
 c16: y_a2_proc_2 <= 0
 c17: y_a2_proc_3 <= 0
 c18: tau <= 0.001642036125
 c19: y_a3_proc_0 + y_a3_proc_1 + y_a3_proc_2 + y_a3_proc_3 - tau = 0
 c20: y_a3_proc_0 <= 0
 c21: y_a3_proc_1 <= 0
 c22: y_a3_proc_2 <= 1
 c23: y_a3_proc_3 <= 0
 c24: tau <= 0.001128668172
 c25: y_a4_proc_0 + y_a4_proc_1 + y_a4_proc_2 - tau = 0
 c26: y_a4_proc_0 <= 1
 c27: y_a4_proc_1 <= 0
 c28: y_a4_proc_2 <= 0
 c29: tau <= 0.001481481481
 c30: y_a5_proc_0 + y_a5_proc_2 + y_a5_proc_3 - tau = 0
 c31: y_a5_proc_0 <= 0
 c32: y_a5_proc_2 <= 1
 c33: y_a5_proc_3 <= 0
 c34: tau <= 0.000906618314
 c35: y_a6_proc_1 + y_a6_proc_2 - tau = 0
 c36: y_a6_proc_1 <= 0
 c37: y_a6_proc_2 <= 1
 c38: tau <= 0.001197604790
 c39: y_a7_proc_0 + y_a7_proc_1 + y_a7_proc_2 - tau = 0
 c40: y_a7_proc_0 <= 0
 c41: y_a7_proc_1 <= 0
 c42: y_a7_proc_2 <= 1
 c43: tau <= 0.000884955752
 c44: y_a8_proc_2 + y_a8_proc_3 - tau = 0
 c45: y_a8_proc_2 <= 0
 c46: y_a8_proc_3 <= 1
 c47: tau <= 0.000822368421
 c48: y_a9_proc_3 - tau = 0
 c49: y_a9_proc_3 <= 1
 c50: tau <= 0.001319261214
 c51: y_a10_proc_0 + y_a10_proc_1 + y_a10_proc_3 - tau = 0
 c52: y_a10_proc_0 <= 0
 c53: y_a10_proc_1 <= 0
 c54: y_a10_proc_3 <= 1
 c55: tau <= 0.001165501166
 c56: y_a11_proc_0 + y_a11_proc_1 + y_a11_proc_3 - tau = 0
 c57: y_a11_proc_0 <= 0
 c58: y_a11_proc_1 <= 1
 c59: y_a11_proc_3 <= 0
 c60: tau <= 0.000988142292
 c61: y_a12_proc_0 + y_a12_proc_1 + y_a12_proc_2 + y_a12_proc_3 - tau = 0
 c62: y_a12_proc_0 <= 0
 c63: y_a12_proc_1 <= 1
 c64: y_a12_proc_2 <= 0
 c65: y_a12_proc_3 <= 0
 c66: tau <= 0.001140250855
 c67: y_a13_proc_1 + y_a13_proc_2 + y_a13_proc_3 - tau = 0
 c68: y_a13_proc_1 <= 0
 c69: y_a13_proc_2 <= 0
 c70: y_a13_proc_3 <= 1
 c71: tau <= 0.001926782274
 c72: y_a14_proc_0 + y_a14_proc_2 + y_a14_proc_3 - tau = 0
 c73: y_a14_proc_0 <= 1
 c74: y_a14_proc_2 <= 0
 c75: y_a14_proc_3 <= 0
 c76: u_a0 - u_a1 - 1042 y_a1_proc_0 - 736 y_a1_proc_1 - 1104 y_a1_proc_2
      - 972 y_a1_proc_3 >= 0
 c77: u_a1 - u_a2 - 723 y_a2_proc_0 - 1141 y_a2_proc_1 - 525 y_a2_proc_2
      - 1017 y_a2_proc_3 >= 0
 c78: u_a2 - u_a3 - 428 y_a3_proc_0 - 690 y_a3_proc_1 - 609 y_a3_proc_2
      - 1017 y_a3_proc_3 >= 0
 c79: u_a3 - u_a4 - 886 y_a4_proc_0 - 520 y_a4_proc_1 - 1271 y_a4_proc_2 >= -1
 c80: u_a4 - u_a5 - 821 y_a5_proc_0 - 675 y_a5_proc_2 - 1124 y_a5_proc_3 >= 0
 c81: u_a6 - u_a4 - 886 y_a4_proc_0 - 520 y_a4_proc_1 - 1271 y_a4_proc_2 >= -2
 c82: u_a4 - u_a7 - 857 y_a7_proc_0 - 1027 y_a7_proc_1 - 835 y_a7_proc_2 >= 0
 c83: u_a7 - u_a8 - 1238 y_a8_proc_2 - 1130 y_a8_proc_3 >= 0
 c84: u_a9 - u_a7 - 857 y_a7_proc_0 - 1027 y_a7_proc_1 - 835 y_a7_proc_2 >= 0
 c85: u_a10 - u_a3 - 428 y_a3_proc_0 - 690 y_a3_proc_1 - 609 y_a3_proc_2
      - 1017 y_a3_proc_3 >= 0
 c86: u_a11 - u_a10 - 1200 y_a10_proc_0 - 283 y_a10_proc_1 - 758 y_a10_proc_3
       >= 0
 c87: u_a12 - u_a3 - 428 y_a3_proc_0 - 690 y_a3_proc_1 - 609 y_a3_proc_2
      - 1017 y_a3_proc_3 >= 0
 c88: u_a13 - u_a9 - 1216 y_a9_proc_3 >= 0
 c89: u_a14 - u_a11 - 773 y_a11_proc_0 - 858 y_a11_proc_1 - 385 y_a11_proc_3
       >= -1
 c90: u_a9 - u_a8 - 1238 y_a8_proc_2 - 1130 y_a8_proc_3 >= 0
 c91: - 1200 y_a10_proc_0 - 283 y_a10_proc_1 - 758 y_a10_proc_3 >= -1
 c92: u_a5 - u_a1 - 1042 y_a1_proc_0 - 736 y_a1_proc_1 - 1104 y_a1_proc_2
      - 972 y_a1_proc_3 >= 0
 c93: u_a8 - u_a13 - 1084 y_a13_proc_1 - 787 y_a13_proc_2 - 877 y_a13_proc_3
       >= -1
 c94: u_a12 - u_a0 - 927 y_a0_proc_1 - 408 y_a0_proc_2 - 654 y_a0_proc_3 >= 0
 c95: u_a3 - u_a5 - 821 y_a5_proc_0 - 675 y_a5_proc_2 - 1124 y_a5_proc_3 >= -1
 c96: u_a11 - u_a12 - 1003 y_a12_proc_0 - 1012 y_a12_proc_1 - 1114 y_a12_proc_2
      - 491 y_a12_proc_3 >= 0
 c97: u_a0 - u_a8 - 1238 y_a8_proc_2 - 1130 y_a8_proc_3 >= 0
 c98: - 519 y_a14_proc_0 - 1114 y_a14_proc_2 - 1042 y_a14_proc_3 >= -1
 c99: u_a6 - u_a1 - 1042 y_a1_proc_0 - 736 y_a1_proc_1 - 1104 y_a1_proc_2
      - 972 y_a1_proc_3 >= -1
 c100: u_a1 - u_a5 - 821 y_a5_proc_0 - 675 y_a5_proc_2 - 1124 y_a5_proc_3 >= -1
 c101: u_a6 - u_a13 - 1084 y_a13_proc_1 - 787 y_a13_proc_2 - 877 y_a13_proc_3
        >= -2
 c102: u_a11 - u_a14 - 519 y_a14_proc_0 - 1114 y_a14_proc_2 - 1042 y_a14_proc_3
        >= 0
 c103: u_a14 - u_a10 - 1200 y_a10_proc_0 - 283 y_a10_proc_1 - 758 y_a10_proc_3
        >= 0
 c104: u_a8 - u_a6 - 896 y_a6_proc_1 - 1103 y_a6_proc_2 >= 0
 c105: u_a12 - u_a13 - 1084 y_a13_proc_1 - 787 y_a13_proc_2 - 877 y_a13_proc_3
        >= 0
 c106: u_a1 - u_a0 - 408 y_a0_proc_2 >= -1290
 c107: u_a1 - u_a0 - 654 y_a0_proc_3 >= -2561
 c108: u_a1 - u_a0 - 927 y_a0_proc_1 >= -1290
 c109: u_a0 - u_a1 - 1104 y_a1_proc_2 >= -1253
 c110: u_a0 - u_a1 - 972 y_a1_proc_3 >= -2524
 c111: u_a0 - u_a1 - 736 y_a1_proc_1 >= -1253
 c112: u_a2 - u_a0 - 408 y_a0_proc_2 >= -1290
 c113: u_a2 - u_a0 - 654 y_a0_proc_3 >= -2561
 c114: u_a2 - u_a0 - 927 y_a0_proc_1 >= -2561
 c115: u_a0 - u_a2 - 525 y_a2_proc_2 >= -1253
 c116: u_a0 - u_a2 - 1017 y_a2_proc_3 >= -2524
 c117: u_a0 - u_a2 - 1141 y_a2_proc_1 >= -2524
 c118: u_a3 - u_a0 - 408 y_a0_proc_2 >= -18
 c119: u_a3 - u_a0 - 654 y_a0_proc_3 >= -2560
 c120: u_a3 - u_a0 - 927 y_a0_proc_1 >= -2560
 c121: u_a0 - u_a3 - 609 y_a3_proc_2 >= 17
 c122: u_a0 - u_a3 - 1017 y_a3_proc_3 >= -2525
 c123: u_a0 - u_a3 - 690 y_a3_proc_1 >= -2525
 c124: u_a4 - u_a0 - 408 y_a0_proc_2 >= -1290
 c125: u_a4 - u_a0 - 927 y_a0_proc_1 >= -2561
 c126: u_a0 - u_a4 - 1271 y_a4_proc_2 >= -1253
 c127: u_a0 - u_a4 - 520 y_a4_proc_1 >= -2524
 c128: u_a5 - u_a0 - 408 y_a0_proc_2 >= -17
 c129: u_a5 - u_a0 - 654 y_a0_proc_3 >= -2559
 c130: u_a0 - u_a5 - 675 y_a5_proc_2 >= 16
 c131: u_a0 - u_a5 - 1124 y_a5_proc_3 >= -2526
 c132: u_a6 - u_a0 - 408 y_a0_proc_2 >= -18
 c133: u_a6 - u_a0 - 927 y_a0_proc_1 >= -2560
 c134: u_a0 - u_a6 - 1103 y_a6_proc_2 >= 17
 c135: u_a0 - u_a6 - 896 y_a6_proc_1 >= -2525
 c136: u_a7 - u_a0 - 408 y_a0_proc_2 >= -17
 c137: u_a7 - u_a0 - 927 y_a0_proc_1 >= -2559
 c138: u_a0 - u_a7 - 835 y_a7_proc_2 >= 16
 c139: u_a0 - u_a7 - 1027 y_a7_proc_1 >= -2526
 c140: u_a8 - u_a0 - 408 y_a0_proc_2 >= -1253
 c141: u_a8 - u_a0 - 654 y_a0_proc_3 >= -1253
 c142: u_a0 - u_a8 - 1238 y_a8_proc_2 >= -1290
 c143: u_a0 - u_a8 - 1130 y_a8_proc_3 >= -1290
 c144: u_a9 - u_a0 - 654 y_a0_proc_3 >= -1253
 c145: u_a0 - u_a9 - 1216 y_a9_proc_3 >= -1290
 c146: u_a10 - u_a0 - 654 y_a0_proc_3 >= -1290
 c147: u_a10 - u_a0 - 927 y_a0_proc_1 >= -2561
 c148: u_a0 - u_a10 - 758 y_a10_proc_3 >= -1253
 c149: u_a0 - u_a10 - 283 y_a10_proc_1 >= -2524
 c150: u_a11 - u_a0 - 654 y_a0_proc_3 >= -2561
 c151: u_a11 - u_a0 - 927 y_a0_proc_1 >= -1290
 c152: u_a0 - u_a11 - 385 y_a11_proc_3 >= -2524
 c153: u_a0 - u_a11 - 858 y_a11_proc_1 >= -1253
 c154: u_a12 - u_a0 - 408 y_a0_proc_2 >= -1290
 c155: u_a12 - u_a0 - 654 y_a0_proc_3 >= -2561
 c156: u_a12 - u_a0 - 927 y_a0_proc_1 >= -1290
 c157: u_a0 - u_a12 - 1114 y_a12_proc_2 >= -1253
 c158: u_a0 - u_a12 - 491 y_a12_proc_3 >= -2524
 c159: u_a0 - u_a12 - 1012 y_a12_proc_1 >= -1253
 c160: u_a13 - u_a0 - 408 y_a0_proc_2 >= -1290
 c161: u_a13 - u_a0 - 654 y_a0_proc_3 >= -1290
 c162: u_a13 - u_a0 - 927 y_a0_proc_1 >= -2561
 c163: u_a0 - u_a13 - 787 y_a13_proc_2 >= -1253
 c164: u_a0 - u_a13 - 877 y_a13_proc_3 >= -1253
 c165: u_a0 - u_a13 - 1084 y_a13_proc_1 >= -2524
 c166: u_a14 - u_a0 - 408 y_a0_proc_2 >= -1290
 c167: u_a14 - u_a0 - 654 y_a0_proc_3 >= -2561
 c168: u_a0 - u_a14 - 1114 y_a14_proc_2 >= -1253
 c169: u_a0 - u_a14 - 1042 y_a14_proc_3 >= -2524
 c170: u_a2 - u_a1 - 1042 y_a1_proc_0 >= -1290
 c171: u_a2 - u_a1 - 1104 y_a1_proc_2 >= -2561
 c172: u_a2 - u_a1 - 972 y_a1_proc_3 >= -2561
 c173: u_a2 - u_a1 - 736 y_a1_proc_1 >= -1290
 c174: u_a1 - u_a2 - 723 y_a2_proc_0 >= -1253
 c175: u_a1 - u_a2 - 525 y_a2_proc_2 >= -2524
 c176: u_a1 - u_a2 - 1017 y_a2_proc_3 >= -2524
 c177: u_a1 - u_a2 - 1141 y_a2_proc_1 >= -1253
 c178: u_a3 - u_a1 - 1042 y_a1_proc_0 >= -2561
 c179: u_a3 - u_a1 - 1104 y_a1_proc_2 >= -1290
 c180: u_a3 - u_a1 - 972 y_a1_proc_3 >= -2561
 c181: u_a3 - u_a1 - 736 y_a1_proc_1 >= -1290
 c182: u_a1 - u_a3 - 428 y_a3_proc_0 >= -2524
 c183: u_a1 - u_a3 - 609 y_a3_proc_2 >= -1253
 c184: u_a1 - u_a3 - 1017 y_a3_proc_3 >= -2524
 c185: u_a1 - u_a3 - 690 y_a3_proc_1 >= -1253
 c186: u_a4 - u_a1 - 1042 y_a1_proc_0 >= -1290
 c187: u_a4 - u_a1 - 1104 y_a1_proc_2 >= -2561
 c188: u_a4 - u_a1 - 736 y_a1_proc_1 >= -1290
 c189: u_a1 - u_a4 - 886 y_a4_proc_0 >= -1253
 c190: u_a1 - u_a4 - 1271 y_a4_proc_2 >= -2524
 c191: u_a1 - u_a4 - 520 y_a4_proc_1 >= -1253
 c192: u_a5 - u_a1 - 1042 y_a1_proc_0 >= -2561
 c193: u_a5 - u_a1 - 1104 y_a1_proc_2 >= -1290
 c194: u_a5 - u_a1 - 972 y_a1_proc_3 >= -2561
 c195: u_a1 - u_a5 - 821 y_a5_proc_0 >= -2524
 c196: u_a1 - u_a5 - 675 y_a5_proc_2 >= -1253
 c197: u_a1 - u_a5 - 1124 y_a5_proc_3 >= -2524
 c198: u_a6 - u_a1 - 1104 y_a1_proc_2 >= -1253
 c199: u_a6 - u_a1 - 736 y_a1_proc_1 >= -1253
 c200: u_a1 - u_a6 - 1103 y_a6_proc_2 >= -1290
 c201: u_a1 - u_a6 - 896 y_a6_proc_1 >= -1290
 c202: u_a7 - u_a1 - 1042 y_a1_proc_0 >= -2524
 c203: u_a7 - u_a1 - 1104 y_a1_proc_2 >= -1253
 c204: u_a7 - u_a1 - 736 y_a1_proc_1 >= -1253
 c205: u_a1 - u_a7 - 857 y_a7_proc_0 >= -2561
 c206: u_a1 - u_a7 - 835 y_a7_proc_2 >= -1290
 c207: u_a1 - u_a7 - 1027 y_a7_proc_1 >= -1290
 c208: u_a8 - u_a1 - 1104 y_a1_proc_2 >= -2524
 c209: u_a8 - u_a1 - 972 y_a1_proc_3 >= -1253
 c210: u_a1 - u_a8 - 1238 y_a8_proc_2 >= -2561
 c211: u_a1 - u_a8 - 1130 y_a8_proc_3 >= -1290
 c212: u_a9 - u_a1 - 972 y_a1_proc_3 >= -1290
 c213: u_a1 - u_a9 - 1216 y_a9_proc_3 >= -1253
 c214: u_a10 - u_a1 - 1042 y_a1_proc_0 >= -2561
 c215: u_a10 - u_a1 - 972 y_a1_proc_3 >= -1290
 c216: u_a10 - u_a1 - 736 y_a1_proc_1 >= -1290
 c217: u_a1 - u_a10 - 1200 y_a10_proc_0 >= -2524
 c218: u_a1 - u_a10 - 758 y_a10_proc_3 >= -1253
 c219: u_a1 - u_a10 - 283 y_a10_proc_1 >= -1253
 c220: u_a11 - u_a1 - 1042 y_a1_proc_0 >= -2524
 c221: u_a11 - u_a1 - 972 y_a1_proc_3 >= -2524
 c222: u_a11 - u_a1 - 736 y_a1_proc_1 >= 18
 c223: u_a1 - u_a11 - 773 y_a11_proc_0 >= -2561
 c224: u_a1 - u_a11 - 385 y_a11_proc_3 >= -2561
 c225: u_a1 - u_a11 - 858 y_a11_proc_1 >= -19
 c226: u_a12 - u_a1 - 1042 y_a1_proc_0 >= -2524
 c227: u_a12 - u_a1 - 1104 y_a1_proc_2 >= -2524
 c228: u_a12 - u_a1 - 972 y_a1_proc_3 >= -2524
 c229: u_a12 - u_a1 - 736 y_a1_proc_1 >= 18
 c230: u_a1 - u_a12 - 1003 y_a12_proc_0 >= -2561
 c231: u_a1 - u_a12 - 1114 y_a12_proc_2 >= -2561
 c232: u_a1 - u_a12 - 491 y_a12_proc_3 >= -2561
 c233: u_a1 - u_a12 - 1012 y_a12_proc_1 >= -19
 c234: u_a13 - u_a1 - 1104 y_a1_proc_2 >= -2561
 c235: u_a13 - u_a1 - 972 y_a1_proc_3 >= -1290
 c236: u_a13 - u_a1 - 736 y_a1_proc_1 >= -1290
 c237: u_a1 - u_a13 - 787 y_a13_proc_2 >= -2524
 c238: u_a1 - u_a13 - 877 y_a13_proc_3 >= -1253
 c239: u_a1 - u_a13 - 1084 y_a13_proc_1 >= -1253
 c240: u_a14 - u_a1 - 1042 y_a1_proc_0 >= -1290
 c241: u_a14 - u_a1 - 1104 y_a1_proc_2 >= -2561
 c242: u_a14 - u_a1 - 972 y_a1_proc_3 >= -2561
 c243: u_a1 - u_a14 - 519 y_a14_proc_0 >= -1253
 c244: u_a1 - u_a14 - 1114 y_a14_proc_2 >= -2524
 c245: u_a1 - u_a14 - 1042 y_a14_proc_3 >= -2524
 c246: u_a3 - u_a2 - 723 y_a2_proc_0 >= -1290
 c247: u_a3 - u_a2 - 525 y_a2_proc_2 >= -1290
 c248: u_a3 - u_a2 - 1017 y_a2_proc_3 >= -2561
 c249: u_a3 - u_a2 - 1141 y_a2_proc_1 >= -2561
 c250: u_a2 - u_a3 - 428 y_a3_proc_0 >= -1253
 c251: u_a2 - u_a3 - 609 y_a3_proc_2 >= -1253
 c252: u_a2 - u_a3 - 1017 y_a3_proc_3 >= -2524
 c253: u_a2 - u_a3 - 690 y_a3_proc_1 >= -2524
 c254: u_a4 - u_a2 - 723 y_a2_proc_0 >= 0
 c255: u_a4 - u_a2 - 525 y_a2_proc_2 >= -2542
 c256: u_a4 - u_a2 - 1141 y_a2_proc_1 >= -2542
 c257: u_a2 - u_a4 - 886 y_a4_proc_0 >= -1
 c258: u_a2 - u_a4 - 1271 y_a4_proc_2 >= -2543
 c259: u_a2 - u_a4 - 520 y_a4_proc_1 >= -2543
 c260: u_a5 - u_a2 - 723 y_a2_proc_0 >= -1290
 c261: u_a5 - u_a2 - 525 y_a2_proc_2 >= -1290
 c262: u_a5 - u_a2 - 1017 y_a2_proc_3 >= -2561
 c263: u_a2 - u_a5 - 821 y_a5_proc_0 >= -1253
 c264: u_a2 - u_a5 - 675 y_a5_proc_2 >= -1253
 c265: u_a2 - u_a5 - 1124 y_a5_proc_3 >= -2524
 c266: u_a6 - u_a2 - 525 y_a2_proc_2 >= -1290
 c267: u_a6 - u_a2 - 1141 y_a2_proc_1 >= -2561
 c268: u_a2 - u_a6 - 1103 y_a6_proc_2 >= -1253
 c269: u_a2 - u_a6 - 896 y_a6_proc_1 >= -2524
 c270: u_a7 - u_a2 - 723 y_a2_proc_0 >= -1290
 c271: u_a7 - u_a2 - 525 y_a2_proc_2 >= -1290
 c272: u_a7 - u_a2 - 1141 y_a2_proc_1 >= -2561
 c273: u_a2 - u_a7 - 857 y_a7_proc_0 >= -1253
 c274: u_a2 - u_a7 - 835 y_a7_proc_2 >= -1253
 c275: u_a2 - u_a7 - 1027 y_a7_proc_1 >= -2524
 c276: u_a8 - u_a2 - 525 y_a2_proc_2 >= -2561
 c277: u_a8 - u_a2 - 1017 y_a2_proc_3 >= -1290
 c278: u_a2 - u_a8 - 1238 y_a8_proc_2 >= -2524
 c279: u_a2 - u_a8 - 1130 y_a8_proc_3 >= -1253
 c280: u_a9 - u_a2 - 1017 y_a2_proc_3 >= -1253
 c281: u_a2 - u_a9 - 1216 y_a9_proc_3 >= -1290
 c282: u_a10 - u_a2 - 723 y_a2_proc_0 >= -1290
 c283: u_a10 - u_a2 - 1017 y_a2_proc_3 >= -1290
 c284: u_a10 - u_a2 - 1141 y_a2_proc_1 >= -2561
 c285: u_a2 - u_a10 - 1200 y_a10_proc_0 >= -1253
 c286: u_a2 - u_a10 - 758 y_a10_proc_3 >= -1253
 c287: u_a2 - u_a10 - 283 y_a10_proc_1 >= -2524
 c288: u_a11 - u_a2 - 723 y_a2_proc_0 >= -1290
 c289: u_a11 - u_a2 - 1017 y_a2_proc_3 >= -2561
 c290: u_a11 - u_a2 - 1141 y_a2_proc_1 >= -1290
 c291: u_a2 - u_a11 - 773 y_a11_proc_0 >= -1253
 c292: u_a2 - u_a11 - 385 y_a11_proc_3 >= -2524
 c293: u_a2 - u_a11 - 858 y_a11_proc_1 >= -1253
 c294: u_a12 - u_a2 - 723 y_a2_proc_0 >= -1290
 c295: u_a12 - u_a2 - 525 y_a2_proc_2 >= -2561
 c296: u_a12 - u_a2 - 1017 y_a2_proc_3 >= -2561
 c297: u_a12 - u_a2 - 1141 y_a2_proc_1 >= -1290
 c298: u_a2 - u_a12 - 1003 y_a12_proc_0 >= -1253
 c299: u_a2 - u_a12 - 1114 y_a12_proc_2 >= -2524
 c300: u_a2 - u_a12 - 491 y_a12_proc_3 >= -2524
 c301: u_a2 - u_a12 - 1012 y_a12_proc_1 >= -1253
 c302: u_a13 - u_a2 - 525 y_a2_proc_2 >= -2561
 c303: u_a13 - u_a2 - 1017 y_a2_proc_3 >= -1290
 c304: u_a13 - u_a2 - 1141 y_a2_proc_1 >= -2561
 c305: u_a2 - u_a13 - 787 y_a13_proc_2 >= -2524
 c306: u_a2 - u_a13 - 877 y_a13_proc_3 >= -1253
 c307: u_a2 - u_a13 - 1084 y_a13_proc_1 >= -2524
 c308: u_a14 - u_a2 - 723 y_a2_proc_0 >= 18
 c309: u_a14 - u_a2 - 525 y_a2_proc_2 >= -2524
 c310: u_a14 - u_a2 - 1017 y_a2_proc_3 >= -2524
 c311: u_a2 - u_a14 - 519 y_a14_proc_0 >= -19
 c312: u_a2 - u_a14 - 1114 y_a14_proc_2 >= -2561
 c313: u_a2 - u_a14 - 1042 y_a14_proc_3 >= -2561
 c314: u_a4 - u_a3 - 428 y_a3_proc_0 >= -1290
 c315: u_a4 - u_a3 - 609 y_a3_proc_2 >= -1290
 c316: u_a4 - u_a3 - 690 y_a3_proc_1 >= -2561
 c317: u_a3 - u_a4 - 886 y_a4_proc_0 >= -1253
 c318: u_a3 - u_a4 - 1271 y_a4_proc_2 >= -1253
 c319: u_a3 - u_a4 - 520 y_a4_proc_1 >= -2524
 c320: u_a5 - u_a3 - 428 y_a3_proc_0 >= -2542
 c321: u_a5 - u_a3 - 609 y_a3_proc_2 >= 0
 c322: u_a5 - u_a3 - 1017 y_a3_proc_3 >= -2542
 c323: u_a3 - u_a5 - 821 y_a5_proc_0 >= -2543
 c324: u_a3 - u_a5 - 675 y_a5_proc_2 >= -1
 c325: u_a3 - u_a5 - 1124 y_a5_proc_3 >= -2543
 c326: u_a6 - u_a3 - 609 y_a3_proc_2 >= -1
 c327: u_a6 - u_a3 - 690 y_a3_proc_1 >= -2543
 c328: u_a3 - u_a6 - 1103 y_a6_proc_2 >= 0
 c329: u_a3 - u_a6 - 896 y_a6_proc_1 >= -2542
 c330: u_a7 - u_a3 - 428 y_a3_proc_0 >= -2542
 c331: u_a7 - u_a3 - 609 y_a3_proc_2 >= 0
 c332: u_a7 - u_a3 - 690 y_a3_proc_1 >= -2542
 c333: u_a3 - u_a7 - 857 y_a7_proc_0 >= -2543
 c334: u_a3 - u_a7 - 835 y_a7_proc_2 >= -1
 c335: u_a3 - u_a7 - 1027 y_a7_proc_1 >= -2543
 c336: u_a8 - u_a3 - 609 y_a3_proc_2 >= -1290
 c337: u_a8 - u_a3 - 1017 y_a3_proc_3 >= -1290
 c338: u_a3 - u_a8 - 1238 y_a8_proc_2 >= -1253
 c339: u_a3 - u_a8 - 1130 y_a8_proc_3 >= -1253
 c340: u_a9 - u_a3 - 1017 y_a3_proc_3 >= -1290
 c341: u_a3 - u_a9 - 1216 y_a9_proc_3 >= -1253
 c342: u_a10 - u_a3 - 428 y_a3_proc_0 >= -2524
 c343: u_a10 - u_a3 - 1017 y_a3_proc_3 >= -1253
 c344: u_a10 - u_a3 - 690 y_a3_proc_1 >= -2524
 c345: u_a3 - u_a10 - 1200 y_a10_proc_0 >= -2561
 c346: u_a3 - u_a10 - 758 y_a10_proc_3 >= -1290
 c347: u_a3 - u_a10 - 283 y_a10_proc_1 >= -2561
 c348: u_a11 - u_a3 - 428 y_a3_proc_0 >= -2561
 c349: u_a11 - u_a3 - 1017 y_a3_proc_3 >= -2561
 c350: u_a11 - u_a3 - 690 y_a3_proc_1 >= -1290
 c351: u_a3 - u_a11 - 773 y_a11_proc_0 >= -2524
 c352: u_a3 - u_a11 - 385 y_a11_proc_3 >= -2524
 c353: u_a3 - u_a11 - 858 y_a11_proc_1 >= -1253
 c354: u_a12 - u_a3 - 428 y_a3_proc_0 >= -2561
 c355: u_a12 - u_a3 - 609 y_a3_proc_2 >= -1290
 c356: u_a12 - u_a3 - 1017 y_a3_proc_3 >= -2561
 c357: u_a12 - u_a3 - 690 y_a3_proc_1 >= -1290
 c358: u_a3 - u_a12 - 1003 y_a12_proc_0 >= -2524
 c359: u_a3 - u_a12 - 1114 y_a12_proc_2 >= -1253
 c360: u_a3 - u_a12 - 491 y_a12_proc_3 >= -2524
 c361: u_a3 - u_a12 - 1012 y_a12_proc_1 >= -1253
 c362: u_a13 - u_a3 - 609 y_a3_proc_2 >= -1290
 c363: u_a13 - u_a3 - 1017 y_a3_proc_3 >= -1290
 c364: u_a13 - u_a3 - 690 y_a3_proc_1 >= -2561
 c365: u_a3 - u_a13 - 787 y_a13_proc_2 >= -1253
 c366: u_a3 - u_a13 - 877 y_a13_proc_3 >= -1253
 c367: u_a3 - u_a13 - 1084 y_a13_proc_1 >= -2524
 c368: u_a14 - u_a3 - 428 y_a3_proc_0 >= -1290
 c369: u_a14 - u_a3 - 609 y_a3_proc_2 >= -1290
 c370: u_a14 - u_a3 - 1017 y_a3_proc_3 >= -2561
 c371: u_a3 - u_a14 - 519 y_a14_proc_0 >= -1253
 c372: u_a3 - u_a14 - 1114 y_a14_proc_2 >= -1253
 c373: u_a3 - u_a14 - 1042 y_a14_proc_3 >= -2524
 c374: u_a5 - u_a4 - 886 y_a4_proc_0 >= -1290
 c375: u_a5 - u_a4 - 1271 y_a4_proc_2 >= -1290
 c376: u_a4 - u_a5 - 821 y_a5_proc_0 >= -1253
 c377: u_a4 - u_a5 - 675 y_a5_proc_2 >= -1253
 c378: u_a6 - u_a4 - 1271 y_a4_proc_2 >= -1253
 c379: u_a6 - u_a4 - 520 y_a4_proc_1 >= -2524
 c380: u_a4 - u_a6 - 1103 y_a6_proc_2 >= -1290
 c381: u_a4 - u_a6 - 896 y_a6_proc_1 >= -2561
 c382: u_a7 - u_a4 - 886 y_a4_proc_0 >= -1253
 c383: u_a7 - u_a4 - 1271 y_a4_proc_2 >= -1253
 c384: u_a7 - u_a4 - 520 y_a4_proc_1 >= -2524
 c385: u_a4 - u_a7 - 857 y_a7_proc_0 >= -1290
 c386: u_a4 - u_a7 - 835 y_a7_proc_2 >= -1290
 c387: u_a4 - u_a7 - 1027 y_a7_proc_1 >= -2561
 c388: u_a8 - u_a4 - 1271 y_a4_proc_2 >= -2561
 c389: u_a4 - u_a8 - 1238 y_a8_proc_2 >= -2524
 c390: u_a10 - u_a4 - 886 y_a4_proc_0 >= -1290
 c391: u_a10 - u_a4 - 520 y_a4_proc_1 >= -2561
 c392: u_a4 - u_a10 - 1200 y_a10_proc_0 >= -1253
 c393: u_a4 - u_a10 - 283 y_a10_proc_1 >= -2524
 c394: u_a11 - u_a4 - 886 y_a4_proc_0 >= -1290
 c395: u_a11 - u_a4 - 520 y_a4_proc_1 >= -1290
 c396: u_a4 - u_a11 - 773 y_a11_proc_0 >= -1253
 c397: u_a4 - u_a11 - 858 y_a11_proc_1 >= -1253
 c398: u_a12 - u_a4 - 886 y_a4_proc_0 >= -1290
 c399: u_a12 - u_a4 - 1271 y_a4_proc_2 >= -2561
 c400: u_a12 - u_a4 - 520 y_a4_proc_1 >= -1290
 c401: u_a4 - u_a12 - 1003 y_a12_proc_0 >= -1253
 c402: u_a4 - u_a12 - 1114 y_a12_proc_2 >= -2524
 c403: u_a4 - u_a12 - 1012 y_a12_proc_1 >= -1253
 c404: u_a13 - u_a4 - 1271 y_a4_proc_2 >= -2561
 c405: u_a13 - u_a4 - 520 y_a4_proc_1 >= -2561
 c406: u_a4 - u_a13 - 787 y_a13_proc_2 >= -2524
 c407: u_a4 - u_a13 - 1084 y_a13_proc_1 >= -2524
 c408: u_a14 - u_a4 - 886 y_a4_proc_0 >= 18
 c409: u_a14 - u_a4 - 1271 y_a4_proc_2 >= -2524
 c410: u_a4 - u_a14 - 519 y_a14_proc_0 >= -19
 c411: u_a4 - u_a14 - 1114 y_a14_proc_2 >= -2561
 c412: u_a6 - u_a5 - 675 y_a5_proc_2 >= -1
 c413: u_a5 - u_a6 - 1103 y_a6_proc_2 >= 0
 c414: u_a7 - u_a5 - 821 y_a5_proc_0 >= -2543
 c415: u_a7 - u_a5 - 675 y_a5_proc_2 >= -1
 c416: u_a5 - u_a7 - 857 y_a7_proc_0 >= -2542
 c417: u_a5 - u_a7 - 835 y_a7_proc_2 >= 0
 c418: u_a8 - u_a5 - 675 y_a5_proc_2 >= -1290
 c419: u_a8 - u_a5 - 1124 y_a5_proc_3 >= -1290
 c420: u_a5 - u_a8 - 1238 y_a8_proc_2 >= -1253
 c421: u_a5 - u_a8 - 1130 y_a8_proc_3 >= -1253
 c422: u_a9 - u_a5 - 1124 y_a5_proc_3 >= -1253
 c423: u_a5 - u_a9 - 1216 y_a9_proc_3 >= -1290
 c424: u_a10 - u_a5 - 821 y_a5_proc_0 >= -2524
 c425: u_a10 - u_a5 - 1124 y_a5_proc_3 >= -1253
 c426: u_a5 - u_a10 - 1200 y_a10_proc_0 >= -2561
 c427: u_a5 - u_a10 - 758 y_a10_proc_3 >= -1290
 c428: u_a11 - u_a5 - 821 y_a5_proc_0 >= -2561
 c429: u_a11 - u_a5 - 1124 y_a5_proc_3 >= -2561
 c430: u_a5 - u_a11 - 773 y_a11_proc_0 >= -2524
 c431: u_a5 - u_a11 - 385 y_a11_proc_3 >= -2524
 c432: u_a12 - u_a5 - 821 y_a5_proc_0 >= -2561
 c433: u_a12 - u_a5 - 675 y_a5_proc_2 >= -1290
 c434: u_a12 - u_a5 - 1124 y_a5_proc_3 >= -2561
 c435: u_a5 - u_a12 - 1003 y_a12_proc_0 >= -2524
 c436: u_a5 - u_a12 - 1114 y_a12_proc_2 >= -1253
 c437: u_a5 - u_a12 - 491 y_a12_proc_3 >= -2524
 c438: u_a13 - u_a5 - 675 y_a5_proc_2 >= -1290
 c439: u_a13 - u_a5 - 1124 y_a5_proc_3 >= -1290
 c440: u_a5 - u_a13 - 787 y_a13_proc_2 >= -1253
 c441: u_a5 - u_a13 - 877 y_a13_proc_3 >= -1253
 c442: u_a14 - u_a5 - 821 y_a5_proc_0 >= -1290
 c443: u_a14 - u_a5 - 675 y_a5_proc_2 >= -1290
 c444: u_a14 - u_a5 - 1124 y_a5_proc_3 >= -2561
 c445: u_a5 - u_a14 - 519 y_a14_proc_0 >= -1253
 c446: u_a5 - u_a14 - 1114 y_a14_proc_2 >= -1253
 c447: u_a5 - u_a14 - 1042 y_a14_proc_3 >= -2524
 c448: u_a7 - u_a6 - 1103 y_a6_proc_2 >= 0
 c449: u_a7 - u_a6 - 896 y_a6_proc_1 >= -2542
 c450: u_a6 - u_a7 - 835 y_a7_proc_2 >= -1
 c451: u_a6 - u_a7 - 1027 y_a7_proc_1 >= -2543
 c452: u_a8 - u_a6 - 1103 y_a6_proc_2 >= -1253
 c453: u_a6 - u_a8 - 1238 y_a8_proc_2 >= -1290
 c454: u_a10 - u_a6 - 896 y_a6_proc_1 >= -2561
 c455: u_a6 - u_a10 - 283 y_a10_proc_1 >= -2524
 c456: u_a11 - u_a6 - 896 y_a6_proc_1 >= -1290
 c457: u_a6 - u_a11 - 858 y_a11_proc_1 >= -1253
 c458: u_a12 - u_a6 - 1103 y_a6_proc_2 >= -1253
 c459: u_a12 - u_a6 - 896 y_a6_proc_1 >= -1253
 c460: u_a6 - u_a12 - 1114 y_a12_proc_2 >= -1290
 c461: u_a6 - u_a12 - 1012 y_a12_proc_1 >= -1290
 c462: u_a13 - u_a6 - 1103 y_a6_proc_2 >= -1253
 c463: u_a13 - u_a6 - 896 y_a6_proc_1 >= -2524
 c464: u_a6 - u_a13 - 787 y_a13_proc_2 >= -1290
 c465: u_a6 - u_a13 - 1084 y_a13_proc_1 >= -2561
 c466: u_a14 - u_a6 - 1103 y_a6_proc_2 >= -1290
 c467: u_a6 - u_a14 - 1114 y_a14_proc_2 >= -1253
 c468: u_a8 - u_a7 - 835 y_a7_proc_2 >= -1290
 c469: u_a7 - u_a8 - 1238 y_a8_proc_2 >= -1253
 c470: u_a10 - u_a7 - 857 y_a7_proc_0 >= -2561
 c471: u_a10 - u_a7 - 1027 y_a7_proc_1 >= -2561
 c472: u_a7 - u_a10 - 1200 y_a10_proc_0 >= -2524
 c473: u_a7 - u_a10 - 283 y_a10_proc_1 >= -2524
 c474: u_a11 - u_a7 - 857 y_a7_proc_0 >= -2561
 c475: u_a11 - u_a7 - 1027 y_a7_proc_1 >= -1290
 c476: u_a7 - u_a11 - 773 y_a11_proc_0 >= -2524
 c477: u_a7 - u_a11 - 858 y_a11_proc_1 >= -1253
 c478: u_a12 - u_a7 - 857 y_a7_proc_0 >= -2561
 c479: u_a12 - u_a7 - 835 y_a7_proc_2 >= -1290
 c480: u_a12 - u_a7 - 1027 y_a7_proc_1 >= -1290
 c481: u_a7 - u_a12 - 1003 y_a12_proc_0 >= -2524
 c482: u_a7 - u_a12 - 1114 y_a12_proc_2 >= -1253
 c483: u_a7 - u_a12 - 1012 y_a12_proc_1 >= -1253
 c484: u_a13 - u_a7 - 835 y_a7_proc_2 >= -1290
 c485: u_a13 - u_a7 - 1027 y_a7_proc_1 >= -2561
 c486: u_a7 - u_a13 - 787 y_a13_proc_2 >= -1253
 c487: u_a7 - u_a13 - 1084 y_a13_proc_1 >= -2524
 c488: u_a14 - u_a7 - 857 y_a7_proc_0 >= -1290
 c489: u_a14 - u_a7 - 835 y_a7_proc_2 >= -1290
 c490: u_a7 - u_a14 - 519 y_a14_proc_0 >= -1253
 c491: u_a7 - u_a14 - 1114 y_a14_proc_2 >= -1253
 c492: u_a9 - u_a8 - 1130 y_a8_proc_3 >= 0
 c493: u_a8 - u_a9 - 1216 y_a9_proc_3 >= -1
 c494: u_a10 - u_a8 - 1130 y_a8_proc_3 >= 6
 c495: u_a8 - u_a10 - 758 y_a10_proc_3 >= -7
 c496: u_a11 - u_a8 - 1130 y_a8_proc_3 >= -1290
 c497: u_a8 - u_a11 - 385 y_a11_proc_3 >= -1253
 c498: u_a12 - u_a8 - 1238 y_a8_proc_2 >= -2561
 c499: u_a12 - u_a8 - 1130 y_a8_proc_3 >= -1290
 c500: u_a8 - u_a12 - 1114 y_a12_proc_2 >= -2524
 c501: u_a8 - u_a12 - 491 y_a12_proc_3 >= -1253
 c502: u_a13 - u_a8 - 1238 y_a8_proc_2 >= -2542
 c503: u_a13 - u_a8 - 1130 y_a8_proc_3 >= 0
 c504: u_a8 - u_a13 - 787 y_a13_proc_2 >= -2543
 c505: u_a8 - u_a13 - 877 y_a13_proc_3 >= -1
 c506: u_a14 - u_a8 - 1238 y_a8_proc_2 >= -2561
 c507: u_a14 - u_a8 - 1130 y_a8_proc_3 >= -1290
 c508: u_a8 - u_a14 - 1114 y_a14_proc_2 >= -2524
 c509: u_a8 - u_a14 - 1042 y_a14_proc_3 >= -1253
 c510: u_a10 - u_a9 - 1216 y_a9_proc_3 >= 5
 c511: u_a9 - u_a10 - 758 y_a10_proc_3 >= -6
 c512: u_a11 - u_a9 - 1216 y_a9_proc_3 >= -1290
 c513: u_a9 - u_a11 - 385 y_a11_proc_3 >= -1253
 c514: u_a12 - u_a9 - 1216 y_a9_proc_3 >= -1253
 c515: u_a9 - u_a12 - 491 y_a12_proc_3 >= -1290
 c516: u_a13 - u_a9 - 1216 y_a9_proc_3 >= 0
 c517: u_a9 - u_a13 - 877 y_a13_proc_3 >= -1
 c518: u_a14 - u_a9 - 1216 y_a9_proc_3 >= -1290
 c519: u_a9 - u_a14 - 1042 y_a14_proc_3 >= -1253
 c520: u_a11 - u_a10 - 1200 y_a10_proc_0 >= -2561
 c521: u_a11 - u_a10 - 758 y_a10_proc_3 >= -1290
 c522: u_a11 - u_a10 - 283 y_a10_proc_1 >= -1290
 c523: u_a10 - u_a11 - 773 y_a11_proc_0 >= -2524
 c524: u_a10 - u_a11 - 385 y_a11_proc_3 >= -1253
 c525: u_a10 - u_a11 - 858 y_a11_proc_1 >= -1253
 c526: u_a12 - u_a10 - 1200 y_a10_proc_0 >= -2561
 c527: u_a12 - u_a10 - 758 y_a10_proc_3 >= -1290
 c528: u_a12 - u_a10 - 283 y_a10_proc_1 >= -1290
 c529: u_a10 - u_a12 - 1003 y_a12_proc_0 >= -2524
 c530: u_a10 - u_a12 - 491 y_a12_proc_3 >= -1253
 c531: u_a10 - u_a12 - 1012 y_a12_proc_1 >= -1253
 c532: u_a13 - u_a10 - 758 y_a10_proc_3 >= -6
 c533: u_a13 - u_a10 - 283 y_a10_proc_1 >= -2548
 c534: u_a10 - u_a13 - 877 y_a13_proc_3 >= 5
 c535: u_a10 - u_a13 - 1084 y_a13_proc_1 >= -2537
 c536: u_a14 - u_a10 - 1200 y_a10_proc_0 >= -1290
 c537: u_a14 - u_a10 - 758 y_a10_proc_3 >= -1290
 c538: u_a10 - u_a14 - 519 y_a14_proc_0 >= -1253
 c539: u_a10 - u_a14 - 1042 y_a14_proc_3 >= -1253
 c540: u_a12 - u_a11 - 773 y_a11_proc_0 >= -2543
 c541: u_a12 - u_a11 - 385 y_a11_proc_3 >= -2543
 c542: u_a12 - u_a11 - 858 y_a11_proc_1 >= -1
 c543: u_a11 - u_a12 - 1003 y_a12_proc_0 >= -2542
 c544: u_a11 - u_a12 - 491 y_a12_proc_3 >= -2542
 c545: u_a11 - u_a12 - 1012 y_a12_proc_1 >= 0
 c546: u_a13 - u_a11 - 385 y_a11_proc_3 >= -1290
 c547: u_a13 - u_a11 - 858 y_a11_proc_1 >= -1290
 c548: u_a11 - u_a13 - 877 y_a13_proc_3 >= -1253
 c549: u_a11 - u_a13 - 1084 y_a13_proc_1 >= -1253
 c550: u_a14 - u_a11 - 773 y_a11_proc_0 >= -1290
 c551: u_a14 - u_a11 - 385 y_a11_proc_3 >= -2561
 c552: u_a11 - u_a14 - 519 y_a14_proc_0 >= -1253
 c553: u_a11 - u_a14 - 1042 y_a14_proc_3 >= -2524
 c554: u_a13 - u_a12 - 1114 y_a12_proc_2 >= -2561
 c555: u_a13 - u_a12 - 491 y_a12_proc_3 >= -1290
 c556: u_a13 - u_a12 - 1012 y_a12_proc_1 >= -1290
 c557: u_a12 - u_a13 - 787 y_a13_proc_2 >= -2524
 c558: u_a12 - u_a13 - 877 y_a13_proc_3 >= -1253
 c559: u_a12 - u_a13 - 1084 y_a13_proc_1 >= -1253
 c560: u_a14 - u_a12 - 1003 y_a12_proc_0 >= -1290
 c561: u_a14 - u_a12 - 1114 y_a12_proc_2 >= -2561
 c562: u_a14 - u_a12 - 491 y_a12_proc_3 >= -2561
 c563: u_a12 - u_a14 - 519 y_a14_proc_0 >= -1253
 c564: u_a12 - u_a14 - 1114 y_a14_proc_2 >= -2524
 c565: u_a12 - u_a14 - 1042 y_a14_proc_3 >= -2524
 c566: u_a14 - u_a13 - 787 y_a13_proc_2 >= -2524
 c567: u_a14 - u_a13 - 877 y_a13_proc_3 >= -1253
 c568: u_a13 - u_a14 - 1114 y_a14_proc_2 >= -2561
 c569: u_a13 - u_a14 - 1042 y_a14_proc_3 >= -1290

Bounds
End
